3	41	1	8	29	100	0	0	0	0	0	0
800	1	0	0	0	0	0	0	0	0	0	0
800	1	0	0	0	0	0	0	0	0	0	0
800	1	0	0	0	0	0	0	0	0	0	0
100	1	0	79.69	3.39	1	0	0	0	0	0	0
100	1	0	79.69	3.39	1	0	0	0	0	0	0
100	1	0	79.69	3.39	1	0	0	0	0	0	0
100	1	0	79.69	3.39	1	0	0	0	0	0	0
100	1	0	79.69	3.39	1	0	0	0	0	0	0
100	1	0	79.69	3.39	1	0	0	0	0	0	0
100	1	0	79.69	3.39	1	0	0	0	0	0	0
100	1	0	79.69	3.39	1	0	0	0	0	0	0
100	1	0	79.69	3.39	1	0	0	0	0	0	0
100	1	0	79.69	3.39	1	0	0	0	0	0	0
100	1	0	79.69	3.39	1	0	0	0	0	0	0
100	1	0	79.69	3.39	1	0	0	0	0	0	0
100	1	0	79.69	3.39	1	0	0	0	0	0	0
100	1	0	79.69	3.39	1	0	0	0	0	0	0
100	1	0	79.69	3.39	1	0	0	0	0	0	0
100	1	0	79.69	3.39	1	0	0	0	0	0	0
100	1	0	79.69	3.39	1	0	0	0	0	0	0
100	1	0	79.69	3.39	1	0	0	0	0	0	0
100	1	0	79.69	3.39	1	0	0	0	0	0	0
100	1	0	79.69	3.39	1	0	0	0	0	0	0
100	1	0	79.69	3.39	1	0	0	0	0	0	0
100	1	0	79.69	3.39	1	0	0	0	0	0	0
100	1	0	79.69	3.39	1	0	0	0	0	0	0
100	1	0	79.69	3.39	1	0	0	0	0	0	0
100	1	0	79.69	3.39	1	0	0	0	0	0	0
100	1	0	79.69	3.39	1	0	0	0	0	0	0
100	1	0	79.69	3.39	1	0	0	0	0	0	0
100	1	0	79.69	3.39	1	0	0	0	0	0	0
100	1	0	79.69	3.39	1	0	0	0	0	0	0
100	1	0	79.69	3.39	1	0	0	0	0	0	0
100	1	0	79.69	3.39	1	0	0	0	0	0	0
100	1	0	79.69	3.39	1	0	0	0	0	0	0
100	1	0	79.69	3.39	1	0	0	0	0	0	0
100	1	0	79.69	3.39	1	0	0	0	0	0	0
100	1	0	79.69	3.39	1	0	0	0	0	0	0
100	1	0	79.69	3.39	1	0	0	0	0	0	0
100	1	0	79.69	3.39	1	0	0	0	0	0	0
100	1	0	79.69	3.39	1	0	0	0	0	0	0
100	1	0	79.69	3.39	1	0	0	0	0	0	0
100	1	0	79.69	3.39	1	0	0	0	0	0	0
100	1	0	79.69	3.39	1	0	0	0	0	0	0
50	150	0	0	0	0	1236	0	0	99999	0	0
25	25	0	0	0	0	1236	0	0	99999	0	0
50	25	0	0	0	0	1236	0	0	99999	0	0
75	25	0	0	0	0	1236	0	0	99999	0	0
25	50	0	0	0	0	1236	0	0	99999	0	0
75	50	0	0	0	0	1236	0	0	99999	0	0
25	75	0	0	0	0	1236	0	0	99999	0	0
50	75	0	0	0	0	1236	0	0	99999	0	0
75	75	0	0	0	0	1236	0	0	99999	0	0
25	25	0	0	0	0	1236	0	0	0	0	0
50	25	0	0	0	0	1236	0	0	0	0	0
75	25	0	0	0	0	1236	0	0	0	0	0
25	50	0	0	0	0	1236	0	0	0	0	0
75	50	0	0	0	0	1236	0	0	0	0	0
25	75	0	0	0	0	1236	0	0	0	0	0
50	75	0	0	0	0	1236	0	0	0	0	0
75	75	0	0	0	0	1236	0	0	0	0	0
40      50      0       0       0       0       1236    0       0       0       0       0
73      52      0       0       0       0       1236    0       0       0       0       0
90      55      0       0       0       0       1236    0       0       0       0       0
55      79      0       0       0       0       1236    0       0       0       0       0
69      89      0       0       0       0       1236    0       0       0       0       0
32      80      0       0       0       0       1236    0       0       0       0       0
39      96      0       0       0       0       1236    0       0       0       0       0
23      80      0       0       0       0       1236    0       0       0       0       0
4	83	0	0	0	0	1236	0	0	0	0	0
18	58	0	0	0	0	1236	0	0	0	0	0
1	56	0	0	0	0	1236	0	0	0	0	0
13	31	0	0	0	0	1236	0	0	0	0	0
-5	38	0	0	0	0	1236	0	0	0	0	0
26	37	0	0	0	0	1236	0	0	0	0	0
28	13	0	0	0	0	1236	0	0	0	0	0
39	31	0	0	0	0	1236	0	0	0	0	0
48	11	0	0	0	0	1236	0	0	0	0	0
59	17	0	0	0	0	1236	0	0	0	0	0
73	23	0	0	0	0	1236	0	0	0	0	0
74	32	0	0	0	0	1236	0	0	0	0	0
90	44	0	0	0	0	1236	0	0	0	0	0
45	68	10	7	3	120	300	90	0	0	0	0
45	70	30	19	11	537	717	90	0	0	0	0
42	66	10	6	4	908	1088	90	0	0	0	0
42	68	10	6	4	631	811	90	0	0	0	0
42	65	10	6	4	999	1179	90	0	0	0	0
40	69	20	12	8	723	903	90	0	0	0	0
40	66	20	12	8	816	996	90	0	0	0	0
38	68	20	11	9	1048	1228	90	0	0	0	0
38	70	10	5	5	1010	1190	90	0	0	0	0
35	66	10	5	5	823	1003	90	0	0	0	0
35	69	10	5	5	916	1096	90	0	0	0	0
25	85	20	6	14	213	393	90	0	0	0	0
22	75	30	9	21	1036	1216	90	0	0	0	0
22	85	10	3	7	306	486	90	0	0	0	0
20	80	40	10	30	778	958	90	0	0	0	0
20	85	40	9	31	398	578	90	0	0	0	0
18	75	20	5	15	683	863	90	0	0	0	0
15	75	20	4	16	590	770	90	0	0	0	0
15	80	10	2	8	495	675	90	0	0	0	0
30	50	10	6	4	111	291	90	0	0	0	0
30	52	20	12	8	112	292	90	0	0	0	0
28	52	20	11	9	114	294	90	0	0	0	0
28	55	10	5	5	114	294	90	0	0	0	0
25	50	10	5	5	116	296	90	0	0	0	0
25	52	40	19	21	206	386	90	0	0	0	0
25	55	10	5	5	719	899	90	0	0	0	0
23	52	10	4	6	298	478	90	0	0	0	0
23	55	20	8	12	485	665	90	0	0	0	0
20	50	10	4	6	211	391	90	0	0	0	0
20	55	10	4	6	392	572	90	0	0	0	0
10	35	20	6	14	503	683	90	0	0	0	0
10	40	30	8	22	315	495	90	0	0	0	0
8	40	40	8	32	407	587	90	0	0	0	0
8	45	20	4	16	230	410	90	0	0	0	0
5	35	10	1	9	701	881	90	0	0	0	0
5	45	10	1	9	323	503	90	0	0	0	0
2	40	20	1	19	605	785	90	0	0	0	0
0	40	30	0	30	513	693	90	0	0	0	0
0	45	20	0	20	418	598	90	0	0	0	0
35	30	10	9	1	182	362	90	0	0	0	0
35	32	10	9	1	120	300	90	0	0	0	0
33	32	20	19	1	275	455	90	0	0	0	0
33	35	10	9	1	830	1010	90	0	0	0	0
32	30	10	9	1	367	547	90	0	0	0	0
30	30	10	10	0	459	639	90	0	0	0	0
30	32	30	28	2	644	824	90	0	0	0	0
30	35	10	9	1	737	917	90	0	0	0	0
28	30	10	9	1	551	731	90	0	0	0	0
28	35	10	8	2	1047	1227	90	0	0	0	0
26	32	10	8	2	960	1140	90	0	0	0	0
25	30	10	8	2	867	1047	90	0	0	0	0
25	35	10	7	3	1045	1225	90	0	0	0	0
44	5	20	2	18	485	665	90	0	0	0	0
42	10	40	10	30	850	1030	90	0	0	0	0
42	15	10	4	6	945	1125	90	0	0	0	0
40	5	30	4	26	391	571	90	0	0	0	0
40	15	40	15	25	1032	1212	90	0	0	0	0
38	5	30	4	26	299	479	90	0	0	0	0
38	15	10	4	6	137	317	90	0	0	0	0
35	5	20	3	17	211	391	90	0	0	0	0
50	30	10	6	4	1033	1213	90	0	0	0	0
50	35	20	14	6	210	390	90	0	0	0	0
50	40	50	40	10	116	296	90	0	0	0	0
48	30	10	6	4	305	485	90	0	0	0	0
48	40	10	8	2	114	294	90	0	0	0	0
47	35	10	7	3	1050	1230	90	0	0	0	0
47	40	10	9	1	114	294	90	0	0	0	0
45	30	10	7	3	398	578	90	0	0	0	0
45	35	10	8	2	493	673	90	0	0	0	0
95	30	30	9	21	428	608	90	0	0	0	0
95	35	20	7	13	523	703	90	0	0	0	0
53	30	10	6	4	940	1120	90	0	0	0	0
92	30	10	3	7	335	515	90	0	0	0	0
53	35	50	33	17	121	301	90	0	0	0	0
45	65	20	14	6	117	297	90	0	0	0	0
90	35	10	4	6	618	798	90	0	0	0	0
88	30	10	3	7	578	758	90	0	0	0	0
88	35	20	8	12	710	890	90	0	0	0	0
87	30	10	3	7	487	667	90	0	0	0	0
85	25	10	3	7	674	854	90	0	0	0	0
85	35	30	12	18	803	983	90	0	0	0	0
75	55	20	15	5	505	685	90	0	0	0	0
72	55	10	8	2	598	778	90	0	0	0	0
70	58	20	17	3	691	871	90	0	0	0	0
68	60	30	26	4	784	964	90	0	0	0	0
66	55	10	8	2	218	398	90	0	0	0	0
65	55	20	17	3	127	307	90	0	0	0	0
65	60	30	28	2	877	1057	90	0	0	0	0
63	58	10	9	1	970	1150	90	0	0	0	0
60	55	10	9	1	122	302	90	0	0	0	0
60	60	10	10	0	1044	1224	90	0	0	0	0
67	85	20	16	4	500	680	90	0	0	0	0
65	85	40	31	9	592	772	90	0	0	0	0
65	82	10	8	2	406	586	90	0	0	0	0
62	80	30	23	7	313	493	90	0	0	0	0
60	80	10	8	2	221	401	90	0	0	0	0
60	85	30	21	9	687	867	90	0	0	0	0
58	75	20	15	5	225	405	90	0	0	0	0
55	80	10	7	3	877	1057	90	0	0	0	0
55	85	20	13	7	782	962	90	0	0	0	0
